!B3LYP D3BJ 6-311G
!RIJCOSX AutoAux printbasis
!Opt Freq
!DEFGRID3 TightSCF
*xyz -1 2
N 0.00000000000000 0.00000000000000 0.00000000000000
N 1.50000000000000 0.00000000000000 0.00000000000000
*